Route #1: 58 32 4 22 45 50 76
Route #2: 49 73 38 67 66 53 36
Route #3: 70 72 54 9 55 56 69 65 35 26 19 47 41 15 33
Route #4: 13 60 39 3 77 42
Route #5: 51 64 46 25 75 57 20 31 17
Route #6: 74 29 27 59 30 6 24
Route #7: 5 78 61 16 43 68 8 37 2 34
Route #8: 12 44 23 62 63 71 10
Route #9: 11 52 28 79 18 48 14
Route #10: 1 7 21 40
Cost 1792
Time 0.169578
